840259
26,17,12,19,59,90,71,34,46,28,11,23,98,54,65,52,24,43,22,84,92,73,66,4,7,39,14,81,86,45,87,76,38,88,50,36,97,42,35,83,15,16,82,58,61,67,27,2,64,5,3,85,89,8,53,91,44,55,72,68,99,80,63,13,32,60,31,62,93,49,10,56,18,69,75,6,41,77,30,96,21,20,70,74,37,48,1,9,33,57,47,95,25,78,51,79,29,40,94
